(set-info :source |printed by MathSAT|)
(declare-fun a_1 () (Array Int Int))
(declare-fun .y.6 () (Array Int Int))
(declare-fun i_0 () Int)
(declare-fun .y.7 () Int)
(declare-fun S_1 () Int)
(declare-fun .y.8 () Int)
(declare-fun .loc.5 () Bool)
(declare-fun .loc.9 () Bool)
(declare-fun i1_0 () Int)
(define-fun .def_8 () (Array Int Int) (! a_1 :next |.y.6|))
(define-fun .def_10 () Int (! i_0 :next |.y.7|))
(define-fun .def_12 () Int (! S_1 :next |.y.8|))
(define-fun .def_14 () Bool (! .loc.5 :next |.loc.9|))
(define-fun .def_55 () Bool (= .def_10 0))
(define-fun .def_54 () Bool (<= 1 .def_12))
(define-fun .def_56 () Bool (and .def_54 .def_55))
(define-fun .def_52 () Bool (! (not .def_14) :invar-property 0))
(define-fun .def_57 () Bool (! (and .def_52 .def_56) :init true))
(define-fun .def_46 () Int (select .def_8 i1_0))
(define-fun .def_47 () Int (* i1_0 i1_0))
(define-fun .def_48 () Bool (<= .def_47 .def_46))
(define-fun .def_43 () Bool (<= .def_12 i1_0))
(define-fun .def_44 () Bool (not .def_43))
(define-fun .def_40 () Bool (<= i1_0 0))
(define-fun .def_41 () Bool (not .def_40))
(define-fun .def_17 () Bool (<= .def_12 .def_10))
(define-fun .def_42 () Bool (and .def_17 .def_41))
(define-fun .def_45 () Bool (and .def_42 .def_44))
(define-fun .def_49 () Bool (and .def_45 .def_48))
(define-fun .def_50 () Bool (and .loc.9 .def_49))
(define-fun .def_36 () Bool (= .def_12 .y.8))
(define-fun .def_32 () Int (* (- 1) .y.7))
(define-fun .def_33 () Int (+ .def_10 .def_32))
(define-fun .def_34 () Bool (= .def_33 (- 1)))
(define-fun .def_21 () Int (* .def_10 .def_10))
(define-fun .def_23 () Int (* (- 2) .def_10))
(define-fun .def_26 () Int (+ .def_23 .def_21))
(define-fun .def_27 () Int (+ .def_26 1))
(define-fun .def_28 () (Array Int Int) (store .def_8 .def_10 .def_27))
(define-fun .def_29 () Bool (= .y.6 .def_28))
(define-fun .def_18 () Bool (not .def_17))
(define-fun .def_16 () Bool (not .loc.9))
(define-fun .def_19 () Bool (and .def_16 .def_18))
(define-fun .def_30 () Bool (and .def_19 .def_29))
(define-fun .def_35 () Bool (and .def_30 .def_34))
(define-fun .def_37 () Bool (and .def_35 .def_36))
(define-fun .def_51 () Bool (or .def_37 .def_50))
(define-fun .def_53 () Bool (! (and .def_51 .def_52) :trans true))
(assert true)
